CPXPARAM_TimeLimit                               3600
CPXPARAM_Read_DataCheck                          1
Tried aggregator 1 time.
MIP Presolve eliminated 3499 rows and 0 columns.
MIP Presolve modified 6213 coefficients.
Reduced MIP has 157281 rows, 72601 columns, and 746786 nonzeros.
Reduced MIP has 3800 binaries, 0 generals, 0 SOSs, and 0 indicators.
Presolve time = 0.12 sec. (208.56 ticks)
Found incumbent of value 16108.000000 after 0.28 sec. (406.04 ticks)
Probing fixed 0 vars, tightened 2 bounds.
Probing time = 0.04 sec. (37.67 ticks)
Tried aggregator 1 time.
Reduced MIP has 157281 rows, 72601 columns, and 746786 nonzeros.
Reduced MIP has 3800 binaries, 0 generals, 0 SOSs, and 0 indicators.
Presolve time = 0.29 sec. (301.43 ticks)
Probing time = 0.03 sec. (32.45 ticks)
MIP emphasis: balance optimality and feasibility.
MIP search method: dynamic search.
Parallel mode: deterministic, using up to 8 threads.
Root relaxation solution time = 709.23 sec. (206255.49 ticks)

        Nodes                                         Cuts/
   Node  Left     Objective  IInf  Best Integer    Best Bound    ItCnt     Gap

*     0+    0                        16108.0000     1226.0000            92.39%
*     0+    0                        15387.0000     1226.0000            92.03%
      0     0     1226.0000  3320    15387.0000     1226.0000   159417   92.03%
      0     0     1231.0839  3157    15387.0000    Cuts: 3640   426775   92.00%

Implied bound cuts applied:  604
Flow cuts applied:  796
Mixed integer rounding cuts applied:  3145
Gomory fractional cuts applied:  3

Root node processing (before b&c):
  Real time             = 3600.08 sec. (2111911.18 ticks)
Parallel b&c, 8 threads:
  Real time             =    0.00 sec. (0.00 ticks)
  Sync time (average)   =    0.00 sec.
  Wait time (average)   =    0.00 sec.
                          ------------
Total (root+branch&cut) = 3600.08 sec. (2111911.18 ticks)
